c 
c MolecularSimulation 0.9.3
c Simulation written: Jan 13 2012 -- 15:17:57
c Test: Distribution
c Input: ./data/testCNF/SWEEP_R10_K3_N20_M184_S001.cnf
c 
s UNSATISFIABLE
v 0
c algorithmTime:  817
c solutionMemory: 0
c mixCount:       549
c extractCount:   0
c appendCount:    14299590
c splitCount:     549
c spliceCount:    6614689
c purifyCount:    183
c 
